
Gurobi 9.0.1 (linux64) logging started Thu Apr 30 05:57:51 2020

Gurobi Optimizer version 9.0.1 build v9.0.1rc0 (linux64)
Optimize a model with 932 rows, 990 columns and 7056 nonzeros
Model fingerprint: 0xa9cefa23
Variable types: 0 continuous, 990 integer (980 binary)
Coefficient statistics:
  Matrix range     [1e+00, 5e+00]
  Objective range  [1e+01, 1e+02]
  Bounds range     [1e+00, 1e+00]
  RHS range        [1e+00, 1e+00]

User MIP start produced solution with objective 568 (0.00s)
Loaded user MIP start with objective 568

Presolve removed 448 rows and 432 columns
Presolve time: 0.07s
Presolved: 484 rows, 558 columns, 4334 nonzeros
Variable types: 0 continuous, 558 integer (558 binary)

Root relaxation: objective 4.055694e+02, 249 iterations, 0.01 seconds

    Nodes    |    Current Node    |     Objective Bounds      |     Work
 Expl Unexpl |  Obj  Depth IntInf | Incumbent    BestBd   Gap | It/Node Time

     0     0  405.56944    0  112  568.00000  405.56944  28.6%     -    0s
H    0     0                     518.0000000  405.56944  21.7%     -    0s
     0     0  414.56410    0  111  518.00000  414.56410  20.0%     -    0s
H    0     0                     478.0000000  414.56410  13.3%     -    0s
     0     0  416.63669    0  132  478.00000  416.63669  12.8%     -    0s
     0     0  416.76087    0  140  478.00000  416.76087  12.8%     -    0s
     0     0  416.78719    0  134  478.00000  416.78719  12.8%     -    0s
     0     0  422.64915    0  131  478.00000  422.64915  11.6%     -    0s
     0     0  423.02086    0  143  478.00000  423.02086  11.5%     -    0s
     0     0  423.34530    0  143  478.00000  423.34530  11.4%     -    0s
     0     0  423.44291    0  140  478.00000  423.44291  11.4%     -    0s
     0     0  423.45439    0  142  478.00000  423.45439  11.4%     -    0s
     0     0  428.08013    0  139  478.00000  428.08013  10.4%     -    0s
     0     0  428.91504    0  153  478.00000  428.91504  10.3%     -    0s
     0     0  429.27354    0  162  478.00000  429.27354  10.2%     -    0s
     0     0  429.47903    0  158  478.00000  429.47903  10.2%     -    0s
     0     0  429.51057    0  155  478.00000  429.51057  10.1%     -    0s
     0     0  429.52516    0  156  478.00000  429.52516  10.1%     -    0s
     0     0  432.68308    0  163  478.00000  432.68308  9.48%     -    0s
     0     0  432.75867    0  164  478.00000  432.75867  9.46%     -    0s
     0     0  432.75975    0  156  478.00000  432.75975  9.46%     -    0s
     0     0  434.98867    0  177  478.00000  434.98867  9.00%     -    0s
     0     0  435.17509    0  183  478.00000  435.17509  8.96%     -    0s
     0     0  435.19061    0  181  478.00000  435.19061  8.96%     -    0s
     0     0  435.75231    0  104  478.00000  435.75231  8.84%     -    0s
     0     0  435.88000    0  128  478.00000  435.88000  8.81%     -    0s
     0     0  435.88000    0  104  478.00000  435.88000  8.81%     -    0s
     0     0  436.00787    0   89  478.00000  436.00787  8.78%     -    0s
     0     0  436.00787    0  145  478.00000  436.00787  8.78%     -    0s
     0     0  436.00787    0  144  478.00000  436.00787  8.78%     -    0s
     0     0  436.00787    0  157  478.00000  436.00787  8.78%     -    0s
     0     0  436.00787    0  118  478.00000  436.00787  8.78%     -    0s
     0     0  436.00787    0  121  478.00000  436.00787  8.78%     -    0s
     0     0  436.03727    0  123  478.00000  436.03727  8.78%     -    0s
     0     0  436.16667    0  128  478.00000  436.16667  8.75%     -    0s
H    0     0                     473.0000000  436.16667  7.79%     -    0s
     0     0  437.18483    0  120  473.00000  437.18483  7.57%     -    0s
     0     0  437.41463    0  120  473.00000  437.41463  7.52%     -    0s
     0     0  437.47811    0  123  473.00000  437.47811  7.51%     -    0s
     0     0  437.48443    0  125  473.00000  437.48443  7.51%     -    0s
     0     0  437.69497    0  129  473.00000  437.69497  7.46%     -    0s
     0     0  437.98204    0  130  473.00000  437.98204  7.40%     -    0s
     0     0  438.20904    0  131  473.00000  438.20904  7.36%     -    0s
     0     0  438.20904    0  109  473.00000  438.20904  7.36%     -    1s
     0     2  438.24873    0  107  473.00000  438.24873  7.35%     -    1s
*    8     6               4     462.0000000  442.88889  4.14%  54.9    1s

Cutting planes:
  Gomory: 1
  MIR: 13
  Zero half: 21
  RLT: 4

Explored 36 nodes (2966 simplex iterations) in 1.16 seconds
Thread count was 1 (of 40 available processors)

Solution count 5: 462 473 478 ... 568

Optimal solution found (tolerance 1.00e-04)
Best objective 4.620000000000e+02, best bound 4.620000000000e+02, gap 0.0000%

User-callback calls 696, time in user-callback 0.00 sec
